p tw 104 116
1 2
2 17
3 8
4 5
5 6
6 7
8 9
8 69
9 10
10 11
10 86
11 12
12 13
12 101
13 104
14 15
15 16
16 18
17 28
18 19
19 20
20 21
21 22
22 23
23 24
24 25
25 26
26 27
27 29
28 39
29 30
30 31
30 32
31 6
32 33
33 34
34 35
34 89
35 36
35 73
36 37
37 38
38 40
39 50
40 41
40 46
41 42
42 43
43 44
44 45
45 46
46 47
47 48
48 49
49 51
50 61
51 52
52 53
53 54
53 55
54 55
55 56
56 57
57 58
58 59
59 60
60 62
61 72
62 63
63 64
64 65
65 66
66 67
67 68
68 69
69 70
70 71
70 14
71 6
72 83
72 14
73 74
74 75
75 76
76 77
77 78
78 79
79 80
80 81
81 82
82 84
83 94
84 85
85 86
86 87
87 88
87 14
88 6
89 90
90 91
91 92
92 93
93 95
94 3
94 29
95 96
96 97
97 98
98 99
99 100
100 101
101 102
102 103
102 14
103 6
104 4
